(declare-fun X0 () Int)
(declare-fun X1 () Int)
(declare-fun X2 () Int)
(declare-fun X3 () Int)
(declare-fun X4 () Int)
(declare-fun X5 () Int)
(declare-fun X6 () Int)
(declare-fun X7 () Int)
(assert (<= (- X1 X0) 2))
(assert (>= (- X1 X0) 0))
(assert (<= (- X2 X0) 3))
(assert (>= (- X2 X0) 2))
(assert (<= (- X3 X0) 5))
(assert (>= (- X3 X0) 3))
(assert (<= (- X4 X0) 7))
(assert (>= (- X4 X0) 5))
(assert (<= (- X5 X0) 8))
(assert (>= (- X5 X0) 7))
(assert (<= (- X6 X0) 10))
(assert (>= (- X6 X0) 8))
(assert (<= (- X7 X0) 12))
(assert (>= (- X7 X0) 10))
(check-sat)
